unsat
(define-fun f ((x (_ BitVec 64))) (_ BitVec 64) (let ((_let_1 (bvand #b0000000000000000000000000000000000000000000000000000000000000001 (bvnot x)))) (im (bvand #b0000000000000000000000000000000000000000000000000000000000000001 (arba x)) (im (bvand #b0000000000000000000000000000000000000000000000000000000000000001 (ehad x)) (bvor #b0000000000000000000000000000000000000000000000000000000000000001 (shesh x)) _let_1) _let_1)))
27.26user 0.04system 0:27.30elapsed 99%CPU (0avgtext+0avgdata 94968maxresident)k
120inputs+8outputs (0major+19928minor)pagefaults 0swaps
